NAME          DCAP_3_4_2_500_SS333
ROWS
 N  OBJ
 L  CON1
 L  CON2
 L  CON3
 L  CON4
 L  CON5
 L  CON6
 L  CON7
 L  CON8
 L  CON9
 L  CON10
 L  CON11
 L  CON12
 E  CON13
 E  CON14
 E  CON15
 E  CON16
 E  CON17
 E  CON18
 E  CON19
 E  CON20
COLUMNS
    x[1,1]    OBJ       6.180167      CON1      1.000000    
    x[1,1]    CON7      -1.000000     CON8      -1.000000   
    x[1,2]    OBJ       5.039546      CON2      1.000000    
    x[1,2]    CON8      -1.000000   
    x[2,1]    OBJ       6.732585      CON3      1.000000    
    x[2,1]    CON9      -1.000000     CON10     -1.000000   
    x[2,2]    OBJ       7.443064      CON4      1.000000    
    x[2,2]    CON10     -1.000000   
    x[3,1]    OBJ       6.563535      CON5      1.000000    
    x[3,1]    CON11     -1.000000     CON12     -1.000000   
    x[3,2]    OBJ       6.054841      CON6      1.000000    
    x[3,2]    CON12     -1.000000   
    MARKER    'MARKER'                'INTORG'
    u[1,1]    OBJ       48.076654     CON1      -1.000000   
    u[1,2]    OBJ       49.466655     CON2      -1.000000   
    u[2,1]    OBJ       49.996186     CON3      -1.000000   
    u[2,2]    OBJ       32.230043     CON4      -1.000000   
    u[3,1]    OBJ       20.066487     CON5      -1.000000   
    u[3,2]    OBJ       27.484319     CON6      -1.000000   
    y[1,1,1]  OBJ       6.572749      CON7      0.935992    
    y[1,1,1]  CON13     1.000000    
    y[1,1,2]  OBJ       6.397455      CON8      0.889330    
    y[1,1,2]  CON14     1.000000    
    y[1,2,1]  OBJ       5.478511      CON7      0.821982    
    y[1,2,1]  CON15     1.000000    
    y[1,2,2]  OBJ       7.560923      CON8      1.060256    
    y[1,2,2]  CON16     1.000000    
    y[1,3,1]  OBJ       7.134129      CON7      0.682871    
    y[1,3,1]  CON17     1.000000    
    y[1,3,2]  OBJ       7.461010      CON8      1.032867    
    y[1,3,2]  CON18     1.000000    
    y[1,4,1]  OBJ       9.054310      CON7      1.212972    
    y[1,4,1]  CON19     1.000000    
    y[1,4,2]  OBJ       5.357897      CON8      0.971028    
    y[1,4,2]  CON20     1.000000    
    y[2,1,1]  OBJ       5.949663      CON9      0.935992    
    y[2,1,1]  CON13     1.000000    
    y[2,1,2]  OBJ       5.509439      CON10     0.889330    
    y[2,1,2]  CON14     1.000000    
    y[2,2,1]  OBJ       9.739127      CON9      0.821982    
    y[2,2,1]  CON15     1.000000    
    y[2,2,2]  OBJ       7.394106      CON10     1.060256    
    y[2,2,2]  CON16     1.000000    
    y[2,3,1]  OBJ       5.913218      CON9      0.682871    
    y[2,3,1]  CON17     1.000000    
    y[2,3,2]  OBJ       7.014021      CON10     1.032867    
    y[2,3,2]  CON18     1.000000    
    y[2,4,1]  OBJ       8.179940      CON9      1.212972    
    y[2,4,1]  CON19     1.000000    
    y[2,4,2]  OBJ       9.054278      CON10     0.971028    
    y[2,4,2]  CON20     1.000000    
    y[3,1,1]  OBJ       8.338778      CON11     0.935992    
    y[3,1,1]  CON13     1.000000    
    y[3,1,2]  OBJ       6.778599      CON12     0.889330    
    y[3,1,2]  CON14     1.000000    
    y[3,2,1]  OBJ       5.721160      CON11     0.821982    
    y[3,2,1]  CON15     1.000000    
    y[3,2,2]  OBJ       9.231639      CON12     1.060256    
    y[3,2,2]  CON16     1.000000    
    y[3,3,1]  OBJ       6.467089      CON11     0.682871    
    y[3,3,1]  CON17     1.000000    
    y[3,3,2]  OBJ       9.226963      CON12     1.032867    
    y[3,3,2]  CON18     1.000000    
    y[3,4,1]  OBJ       8.356018      CON11     1.212972    
    y[3,4,1]  CON19     1.000000    
    y[3,4,2]  OBJ       8.912826      CON12     0.971028    
    y[3,4,2]  CON20     1.000000    
    z[1,1]    OBJ       836.917027    CON13     1.000000    
    z[1,2]    OBJ       678.366131    CON14     1.000000    
    z[2,1]    OBJ       804.148060    CON15     1.000000    
    z[2,2]    OBJ       533.818355    CON16     1.000000    
    z[3,1]    OBJ       884.598031    CON17     1.000000    
    z[3,2]    OBJ       658.600433    CON18     1.000000    
    z[4,1]    OBJ       766.969489    CON19     1.000000    
    z[4,2]    OBJ       685.409335    CON20     1.000000    
    MARKER    'MARKER'                 'INTEND'
RHS
    RHS       CON1      -0.000000     CON2      -0.000000   
    RHS       CON3      -0.000000     CON4      -0.000000   
    RHS       CON5      -0.000000     CON6      -0.000000   
    RHS       CON7      -0.000000     CON8      -0.000000   
    RHS       CON9      -0.000000     CON10     -0.000000   
    RHS       CON11     -0.000000     CON12     -0.000000   
    RHS       CON13     1.000000      CON14     1.000000    
    RHS       CON15     1.000000      CON16     1.000000    
    RHS       CON17     1.000000      CON18     1.000000    
    RHS       CON19     1.000000      CON20     1.000000    
BOUNDS
 BV BOUND     u[1,1]  
 BV BOUND     u[1,2]  
 BV BOUND     u[2,1]  
 BV BOUND     u[2,2]  
 BV BOUND     u[3,1]  
 BV BOUND     u[3,2]  
 BV BOUND     y[1,1,1]
 BV BOUND     y[1,1,2]
 BV BOUND     y[1,2,1]
 BV BOUND     y[1,2,2]
 BV BOUND     y[1,3,1]
 BV BOUND     y[1,3,2]
 BV BOUND     y[1,4,1]
 BV BOUND     y[1,4,2]
 BV BOUND     y[2,1,1]
 BV BOUND     y[2,1,2]
 BV BOUND     y[2,2,1]
 BV BOUND     y[2,2,2]
 BV BOUND     y[2,3,1]
 BV BOUND     y[2,3,2]
 BV BOUND     y[2,4,1]
 BV BOUND     y[2,4,2]
 BV BOUND     y[3,1,1]
 BV BOUND     y[3,1,2]
 BV BOUND     y[3,2,1]
 BV BOUND     y[3,2,2]
 BV BOUND     y[3,3,1]
 BV BOUND     y[3,3,2]
 BV BOUND     y[3,4,1]
 BV BOUND     y[3,4,2]
 BV BOUND     z[1,1]  
 BV BOUND     z[1,2]  
 BV BOUND     z[2,1]  
 BV BOUND     z[2,2]  
 BV BOUND     z[3,1]  
 BV BOUND     z[3,2]  
 BV BOUND     z[4,1]  
 BV BOUND     z[4,2]  
ENDATA
